db/data/3143629727127523361580816789120023219.z3.out
-------------------
2500.261549004
